
******************************************************************************
This program contains Ipopt, a library for large-scale nonlinear optimization.
 Ipopt is released as open source code under the Eclipse Public License (EPL).
         For more information visit http://projects.coin-or.org/Ipopt

This version of Ipopt was compiled from source code available at
    https://github.com/IDAES/Ipopt as part of the Institute for the Design of
    Advanced Energy Systems Process Systems Engineering Framework (IDAES PSE
    Framework) Copyright (c) 2018-2019. See https://github.com/IDAES/idaes-pse.

This version of Ipopt was compiled using HSL, a collection of Fortran codes
    for large-scale scientific computation.  All technical papers, sales and
    publicity material resulting from use of the HSL codes within IPOPT must
    contain the following acknowledgement:
        HSL, a collection of Fortran codes for large-scale scientific
        computation. See http://www.hsl.rl.ac.uk.
******************************************************************************

This is Ipopt version 3.13.2, running with linear solver ma27.

Number of nonzeros in equality constraint Jacobian...:      808
Number of nonzeros in inequality constraint Jacobian.:        0
Number of nonzeros in Lagrangian Hessian.............:      702

Total number of variables............................:      351
                     variables with only lower bounds:      108
                variables with lower and upper bounds:      189
                     variables with only upper bounds:        0
Total number of equality constraints.................:      350
Total number of inequality constraints...............:        0
        inequality constraints with only lower bounds:        0
   inequality constraints with lower and upper bounds:        0
        inequality constraints with only upper bounds:        0

iter    objective    inf_pr   inf_du lg(mu)  ||d||  lg(rg) alpha_du alpha_pr  ls
   0  0.0000000e+00 7.13e-01 1.78e-15  -1.0 0.00e+00    -  0.00e+00 0.00e+00   0
   1  1.4814918e+00 6.37e-01 1.66e+05  -1.0 1.27e+05    -  5.30e-01 6.51e-01h  1
   2  1.5431638e+00 6.06e-01 1.58e+05  -1.0 3.97e+04    -  8.45e-01 3.99e-02h  1
   3  1.6130315e+00 5.79e-01 1.51e+05  -1.0 1.83e+05    -  8.07e-01 4.42e-02h  1
   4  1.1724467e+01 4.45e-01 1.57e+04  -1.0 1.78e+05    -  8.14e-01 9.90e-01h  1
   5  1.3873028e+01 5.56e-02 1.37e+03  -1.0 1.98e+04    -  5.64e-01 9.90e-01h  1
   6  1.3916776e+01 1.56e-03 4.56e+03  -1.0 3.82e+02    -  9.75e-01 9.90e-01h  1
   7  1.3931163e+01 2.00e-05 8.44e+00  -1.0 1.23e+02    -  9.90e-01 9.90e-01h  1
   8  1.3916496e+01 1.38e-05 5.83e+07  -2.5 3.70e+02    -  9.97e-01 3.36e-01h  1
   9  1.3916587e+01 1.34e-05 1.85e+08  -2.5 2.47e+01    -  9.99e-01 3.12e-02f  6
iter    objective    inf_pr   inf_du lg(mu)  ||d||  lg(rg) alpha_du alpha_pr  ls
  10  1.3919334e+01 9.63e-08 9.12e+05  -2.5 2.34e+01    -  1.00e+00 9.97e-01h  1
  11  1.3919342e+01 2.74e-10 1.37e+08  -2.5 6.59e-02    -  1.00e+00 9.97e-01h  1
In iteration 11, 27 Slacks too small, adjusting variable bounds
  12  1.3919342e+01 9.15e-11 4.85e+10  -2.5 1.91e-04    -  1.00e+00 9.97e-01h  1
  13  1.3919342e+01 6.28e-11 8.93e-04  -2.5 5.47e-07    -  1.00e+00 1.00e+00h  1
  14  1.3919319e+01 2.05e-11 4.87e+10  -9.0 2.52e+01    -  1.00e+00 7.63e-03f  8
  15  1.3916446e+01 7.65e-11 1.63e+06  -9.0 2.44e+01    -  1.00e+00 1.00e+00F  1
  16  1.3916446e+01 4.65e-11 4.29e-10  -9.0 7.65e-06    -  1.00e+00 1.00e+00H  1

Number of Iterations....: 16

                                   (scaled)                 (unscaled)
Objective...............:   1.3916446446807916e+01    1.3916446446807916e+01
Dual infeasibility......:   4.2928149923682213e-10    4.2928149923682213e-10
Constraint violation....:   4.6480597148956804e-11    4.6480597148956804e-11
Complementarity.........:   9.0909396214310438e-10    9.0909396214310438e-10
Overall NLP error.......:   1.0408600509943943e-10    9.0909396214310438e-10


Number of objective function evaluations             = 34
Number of objective gradient evaluations             = 17
Number of equality constraint evaluations            = 34
Number of inequality constraint evaluations          = 0
Number of equality constraint Jacobian evaluations   = 17
Number of inequality constraint Jacobian evaluations = 0
Number of Lagrangian Hessian evaluations             = 16
Total CPU secs in IPOPT (w/o function evaluations)   =      0.035
Total CPU secs in NLP function evaluations           =      0.370

EXIT: Optimal Solution Found.
